c CNF
c from Selman's wff generator
p cnf 200  1600
1.0 -41 -99 0
1.0 -86 -84 0
1.0 -71 29 0
1.0 -12 164 0
1.0 173 112 0
1.0 1 126 0
1.0 -113 -176 0
1.0 112 -43 0
1.0 -141 41 0
1.0 -124 -9 0
1.0 37 93 0
1.0 -57 17 0
1.0 -128 -161 0
1.0 86 -166 0
1.0 -142 168 0
1.0 11 -193 0
1.0 -34 -114 0
1.0 -123 -149 0
1.0 42 11 0
1.0 -28 -136 0
1.0 96 -29 0
1.0 -195 -99 0
1.0 -67 111 0
1.0 104 -194 0
1.0 108 5 0
1.0 -154 -43 0
1.0 53 197 0
1.0 132 21 0
1.0 50 119 0
1.0 -17 186 0
1.0 -97 -169 0
1.0 -163 189 0
1.0 194 -29 0
1.0 -72 -88 0
1.0 84 36 0
1.0 56 -40 0
1.0 -158 -50 0
1.0 35 -128 0
1.0 -96 19 0
1.0 -7 -67 0
1.0 -96 -27 0
1.0 114 -89 0
1.0 124 -96 0
1.0 135 54 0
1.0 103 -31 0
1.0 159 125 0
1.0 -143 -200 0
1.0 -67 -38 0
1.0 -64 -96 0
1.0 -184 -20 0
1.0 116 187 0
1.0 -40 -170 0
1.0 1 -10 0
1.0 134 149 0
1.0 148 123 0
1.0 -161 175 0
1.0 70 105 0
1.0 -125 177 0
1.0 163 48 0
1.0 -17 33 0
1.0 -43 -24 0
1.0 172 -187 0
1.0 -110 78 0
1.0 53 -109 0
1.0 -13 -96 0
1.0 -73 137 0
1.0 185 67 0
1.0 100 -181 0
1.0 -4 -193 0
1.0 179 170 0
1.0 -48 -28 0
1.0 136 -51 0
1.0 147 198 0
1.0 135 -63 0
1.0 -129 90 0
1.0 -70 137 0
1.0 129 -88 0
1.0 -57 -144 0
1.0 172 -152 0
1.0 3 -27 0
1.0 -25 -141 0
1.0 3 -22 0
1.0 -111 -197 0
1.0 133 130 0
1.0 -17 103 0
1.0 -47 162 0
1.0 -114 -183 0
1.0 9 180 0
1.0 -121 -32 0
1.0 54 -71 0
1.0 -67 -14 0
1.0 143 -199 0
1.0 101 -29 0
1.0 -191 -9 0
1.0 192 90 0
1.0 69 -83 0
1.0 -115 -27 0
1.0 -97 -166 0
1.0 -179 -76 0
1.0 74 -23 0
1.0 -52 111 0
1.0 -120 -87 0
1.0 -177 164 0
1.0 47 -144 0
1.0 -171 146 0
1.0 111 61 0
1.0 136 192 0
1.0 -15 89 0
1.0 -199 -106 0
1.0 193 -53 0
1.0 17 139 0
1.0 83 49 0
1.0 -194 -153 0
1.0 -13 -148 0
1.0 -139 -3 0
1.0 92 142 0
1.0 47 127 0
1.0 179 -36 0
1.0 174 23 0
1.0 -71 82 0
1.0 -34 26 0
1.0 -173 -162 0
1.0 165 152 0
1.0 -93 -84 0
1.0 -10 -154 0
1.0 -189 -188 0
1.0 10 43 0
1.0 -124 -126 0
1.0 152 -112 0
1.0 74 198 0
1.0 150 101 0
1.0 -185 -41 0
1.0 -195 -161 0
1.0 -148 -168 0
1.0 10 -164 0
1.0 89 180 0
1.0 -91 -94 0
1.0 92 200 0
1.0 101 98 0
1.0 139 -64 0
1.0 -24 -62 0
1.0 -30 62 0
1.0 -25 -163 0
1.0 -142 62 0
1.0 -156 118 0
1.0 118 200 0
1.0 -98 170 0
1.0 -33 182 0
1.0 44 84 0
1.0 -146 -154 0
1.0 117 83 0
1.0 144 38 0
1.0 -156 88 0
1.0 88 -33 0
1.0 2 194 0
1.0 175 189 0
1.0 73 117 0
1.0 -70 -1 0
1.0 83 73 0
1.0 -110 135 0
1.0 -22 -71 0
1.0 103 -29 0
1.0 -23 -114 0
1.0 103 -29 0
1.0 -145 104 0
1.0 105 -181 0
1.0 53 -45 0
1.0 179 -139 0
1.0 -10 -167 0
1.0 196 2 0
1.0 116 156 0
1.0 -184 -28 0
1.0 -132 185 0
1.0 166 144 0
1.0 -188 -37 0
1.0 -176 -9 0
1.0 175 -75 0
1.0 -77 -113 0
1.0 69 2 0
1.0 -30 -2 0
1.0 -187 -125 0
1.0 -69 20 0
1.0 57 151 0
1.0 159 -188 0
1.0 -62 -112 0
1.0 -25 92 0
1.0 -94 -140 0
1.0 141 -127 0
1.0 51 -81 0
1.0 -101 -49 0
1.0 -200 -197 0
1.0 185 5 0
1.0 -116 -196 0
1.0 88 -114 0
1.0 -53 -179 0
1.0 -105 -187 0
1.0 68 -1 0
1.0 -50 49 0
1.0 46 114 0
1.0 118 98 0
1.0 -94 -61 0
1.0 -175 9 0
1.0 188 66 0
1.0 53 -142 0
1.0 143 -122 0
1.0 171 13 0
1.0 127 47 0
1.0 145 124 0
1.0 184 -52 0
1.0 -61 181 0
1.0 -46 7 0
1.0 149 188 0
1.0 109 105 0
1.0 118 123 0
1.0 170 -143 0
1.0 -66 166 0
1.0 18 172 0
1.0 -153 -193 0
1.0 200 -65 0
1.0 52 -114 0
1.0 19 -121 0
1.0 -44 135 0
1.0 -77 -67 0
1.0 -33 79 0
1.0 -51 199 0
1.0 192 -52 0
1.0 -116 -96 0
1.0 -9 176 0
1.0 -97 -167 0
1.0 -101 -142 0
1.0 -9 79 0
1.0 158 111 0
1.0 110 -17 0
1.0 69 -11 0
1.0 -106 -31 0
1.0 -6 -78 0
1.0 45 -104 0
1.0 -46 194 0
1.0 73 43 0
1.0 153 186 0
1.0 -3 49 0
1.0 60 -56 0
1.0 86 6 0
1.0 -84 -22 0
1.0 126 -36 0
1.0 30 -196 0
1.0 -38 -122 0
1.0 107 -172 0
1.0 -21 16 0
1.0 72 -36 0
1.0 41 -126 0
1.0 147 42 0
1.0 78 -126 0
1.0 121 -70 0
1.0 -191 142 0
1.0 114 -2 0
1.0 18 188 0
1.0 23 60 0
1.0 -185 -94 0
1.0 136 40 0
1.0 -166 47 0
1.0 117 -128 0
1.0 70 -194 0
1.0 -195 12 0
1.0 -199 131 0
1.0 191 -147 0
1.0 -40 -72 0
1.0 -112 110 0
1.0 -157 106 0
1.0 -34 -8 0
1.0 1 -185 0
1.0 196 -3 0
1.0 133 -108 0
1.0 54 100 0
1.0 172 5 0
1.0 -114 55 0
1.0 -161 -125 0
1.0 132 -123 0
1.0 -107 -182 0
1.0 184 -135 0
1.0 43 112 0
1.0 -12 -138 0
1.0 142 58 0
1.0 -113 29 0
1.0 153 68 0
1.0 190 164 0
1.0 -145 -144 0
1.0 79 -94 0
1.0 6 85 0
1.0 23 -8 0
1.0 66 -69 0
1.0 97 145 0
1.0 -12 119 0
1.0 82 150 0
1.0 -94 -95 0
1.0 189 -199 0
1.0 84 -111 0
1.0 119 -13 0
1.0 -82 -89 0
1.0 33 14 0
1.0 132 161 0
1.0 111 144 0
1.0 -39 193 0
1.0 192 69 0
1.0 -179 34 0
1.0 47 -49 0
1.0 -138 -45 0
1.0 58 -134 0
1.0 94 61 0
1.0 5 42 0
1.0 34 182 0
1.0 51 93 0
1.0 -126 -79 0
1.0 128 9 0
1.0 53 -6 0
1.0 139 50 0
1.0 111 -102 0
1.0 -143 -43 0
1.0 25 29 0
1.0 -122 101 0
1.0 180 -31 0
1.0 -40 120 0
1.0 126 8 0
1.0 57 -102 0
1.0 4 -133 0
1.0 -176 41 0
1.0 70 -125 0
1.0 25 180 0
1.0 -10 57 0
1.0 -177 -85 0
1.0 -92 -143 0
1.0 -44 62 0
1.0 -195 -198 0
1.0 -38 -115 0
1.0 39 46 0
1.0 25 135 0
1.0 192 -181 0
1.0 65 -25 0
1.0 -167 35 0
1.0 97 20 0
1.0 17 48 0
1.0 -163 31 0
1.0 76 -58 0
1.0 -193 -134 0
1.0 -115 -19 0
1.0 -43 21 0
1.0 56 -41 0
1.0 60 74 0
1.0 -122 104 0
1.0 135 93 0
1.0 -151 -152 0
1.0 -86 -46 0
1.0 -64 -78 0
1.0 -98 -115 0
1.0 -155 134 0
1.0 8 -149 0
1.0 52 -23 0
1.0 -116 100 0
1.0 51 -107 0
1.0 -152 135 0
1.0 -12 -114 0
1.0 29 -38 0
1.0 -171 -169 0
1.0 -117 -90 0
1.0 -113 120 0
1.0 19 151 0
1.0 57 102 0
1.0 37 141 0
1.0 -54 146 0
1.0 183 -21 0
1.0 -189 -64 0
1.0 154 38 0
1.0 158 -27 0
1.0 177 189 0
1.0 91 -51 0
1.0 -191 66 0
1.0 -11 -132 0
1.0 -152 -193 0
1.0 57 79 0
1.0 116 117 0
1.0 143 -172 0
1.0 -160 95 0
1.0 -145 -195 0
1.0 -60 151 0
1.0 82 107 0
1.0 -100 -12 0
1.0 -90 16 0
1.0 132 44 0
1.0 -15 -127 0
1.0 21 -148 0
1.0 -142 200 0
1.0 150 82 0
1.0 189 137 0
1.0 148 36 0
1.0 51 -11 0
1.0 54 121 0
1.0 47 52 0
1.0 199 -66 0
1.0 -66 135 0
1.0 16 14 0
1.0 150 110 0
1.0 -146 -135 0
1.0 -145 -178 0
1.0 98 -36 0
1.0 88 108 0
1.0 173 45 0
1.0 180 -169 0
1.0 -183 -100 0
1.0 10 -89 0
1.0 -24 -164 0
1.0 -141 130 0
1.0 -166 33 0
1.0 -140 -195 0
1.0 -40 166 0
1.0 134 -3 0
1.0 102 -11 0
1.0 99 -77 0
1.0 40 -17 0
1.0 146 -57 0
1.0 -90 1 0
1.0 -195 103 0
1.0 68 90 0
1.0 -93 -65 0
1.0 -75 -165 0
1.0 42 172 0
1.0 188 -186 0
1.0 43 -80 0
1.0 -80 8 0
1.0 -110 -101 0
1.0 -191 159 0
1.0 23 95 0
1.0 60 -183 0
1.0 -154 -165 0
1.0 151 -44 0
1.0 -123 118 0
1.0 125 85 0
1.0 185 -183 0
1.0 142 -188 0
1.0 83 -135 0
1.0 117 131 0
1.0 96 25 0
1.0 68 -85 0
1.0 -3 -163 0
1.0 -48 68 0
1.0 51 -170 0
1.0 -158 65 0
1.0 -199 -17 0
1.0 -148 25 0
1.0 50 -197 0
1.0 -82 127 0
1.0 90 -100 0
1.0 -167 170 0
1.0 140 177 0
1.0 -41 164 0
1.0 -181 -118 0
1.0 -142 -140 0
1.0 -136 58 0
1.0 185 16 0
1.0 115 110 0
1.0 79 181 0
1.0 -157 -107 0
1.0 71 51 0
1.0 -168 -190 0
1.0 -129 147 0
1.0 5 -9 0
1.0 25 -182 0
1.0 91 -75 0
1.0 -55 119 0
1.0 26 102 0
1.0 -152 -43 0
1.0 32 -123 0
1.0 70 129 0
1.0 138 -106 0
1.0 -88 -127 0
1.0 -1 122 0
1.0 41 136 0
1.0 -38 -74 0
1.0 -117 -106 0
1.0 -29 138 0
1.0 -67 134 0
1.0 -40 -36 0
1.0 -163 -67 0
1.0 189 52 0
1.0 188 86 0
1.0 160 56 0
1.0 162 -123 0
1.0 60 -133 0
1.0 -66 -61 0
1.0 97 95 0
1.0 162 -137 0
1.0 -188 -42 0
1.0 -127 75 0
1.0 -130 14 0
1.0 136 -186 0
1.0 -118 -170 0
1.0 30 -50 0
1.0 -144 -121 0
1.0 58 8 0
1.0 50 -36 0
1.0 110 20 0
1.0 -34 -24 0
1.0 -9 -11 0
1.0 -181 84 0
1.0 -133 200 0
1.0 -121 -122 0
1.0 130 -38 0
1.0 -73 -43 0
1.0 63 16 0
1.0 39 151 0
1.0 -162 -28 0
1.0 -112 84 0
1.0 -83 88 0
1.0 -9 -103 0
1.0 -141 3 0
1.0 -45 -70 0
1.0 86 -17 0
1.0 -167 -67 0
1.0 94 146 0
1.0 29 -22 0
1.0 -109 -170 0
1.0 73 96 0
1.0 98 -171 0
1.0 41 -22 0
1.0 38 52 0
1.0 -118 23 0
1.0 168 -3 0
1.0 -25 -65 0
1.0 35 -23 0
1.0 -119 106 0
1.0 -77 -147 0
1.0 169 8 0
1.0 60 -94 0
1.0 -116 144 0
1.0 147 -5 0
1.0 -70 -188 0
1.0 11 -154 0
1.0 -59 -132 0
1.0 78 103 0
1.0 111 -95 0
1.0 -189 -63 0
1.0 -6 -136 0
1.0 -140 68 0
1.0 -56 26 0
1.0 -179 125 0
1.0 -57 -139 0
1.0 -42 -25 0
1.0 -120 -32 0
1.0 94 68 0
1.0 3 -200 0
1.0 -68 -173 0
1.0 -198 -67 0
1.0 191 183 0
1.0 -121 -187 0
1.0 -11 -161 0
1.0 193 35 0
1.0 -103 -51 0
1.0 50 -37 0
1.0 10 1 0
1.0 -67 28 0
1.0 -10 -198 0
1.0 185 -86 0
1.0 -47 6 0
1.0 -41 -164 0
1.0 14 112 0
1.0 -149 -96 0
1.0 -96 -20 0
1.0 48 150 0
1.0 -147 -124 0
1.0 -10 81 0
1.0 87 -51 0
1.0 14 21 0
1.0 133 117 0
1.0 12 -71 0
1.0 91 -5 0
1.0 -154 89 0
1.0 13 183 0
1.0 64 -156 0
1.0 7 173 0
1.0 194 -146 0
1.0 62 137 0
1.0 -8 46 0
1.0 51 49 0
1.0 -138 -31 0
1.0 -14 134 0
1.0 90 51 0
1.0 -24 103 0
1.0 -49 -164 0
1.0 -101 -150 0
1.0 196 163 0
1.0 12 -40 0
1.0 71 153 0
1.0 -87 -72 0
1.0 122 -187 0
1.0 -90 -189 0
1.0 152 105 0
1.0 -55 30 0
1.0 192 165 0
1.0 -5 145 0
1.0 -98 -52 0
1.0 -123 118 0
1.0 -104 -32 0
1.0 -20 -151 0
1.0 55 -178 0
1.0 -7 -183 0
1.0 147 -55 0
1.0 199 155 0
1.0 6 -183 0
1.0 -100 39 0
1.0 -70 161 0
1.0 111 -128 0
1.0 105 -85 0
1.0 -68 34 0
1.0 -88 113 0
1.0 -67 190 0
1.0 -173 62 0
1.0 101 -172 0
1.0 132 73 0
1.0 1 -121 0
1.0 6 83 0
1.0 116 127 0
1.0 40 -51 0
1.0 -41 73 0
1.0 135 178 0
1.0 150 161 0
1.0 -34 66 0
1.0 -186 -132 0
1.0 14 -155 0
1.0 -82 -150 0
1.0 200 23 0
1.0 96 6 0
1.0 184 -137 0
1.0 97 -71 0
1.0 -136 -138 0
1.0 -70 101 0
1.0 56 -176 0
1.0 125 -146 0
1.0 -169 85 0
1.0 91 17 0
1.0 153 159 0
1.0 -30 -21 0
1.0 158 143 0
1.0 -44 199 0
1.0 174 123 0
1.0 69 94 0
1.0 -179 187 0
1.0 -4 -194 0
1.0 153 -148 0
1.0 -168 -186 0
1.0 -129 -33 0
1.0 32 63 0
1.0 -186 108 0
1.0 1 -127 0
1.0 114 -191 0
1.0 185 -188 0
1.0 -136 -78 0
1.0 64 -66 0
1.0 -99 -182 0
1.0 -45 35 0
1.0 142 -39 0
1.0 -166 174 0
1.0 -164 -168 0
1.0 156 67 0
1.0 -145 4 0
1.0 -69 -23 0
1.0 5 163 0
1.0 197 -32 0
1.0 71 162 0
1.0 -135 1 0
1.0 168 -109 0
1.0 176 -131 0
1.0 -134 8 0
1.0 -31 127 0
1.0 89 66 0
1.0 97 -161 0
1.0 123 104 0
1.0 -105 117 0
1.0 -26 1 0
1.0 -131 9 0
1.0 17 48 0
1.0 174 35 0
1.0 -100 -165 0
1.0 -126 170 0
1.0 -73 -167 0
1.0 84 -60 0
1.0 -60 -44 0
1.0 53 31 0
1.0 -79 121 0
1.0 -156 198 0
1.0 162 62 0
1.0 -31 -16 0
1.0 183 40 0
1.0 -100 -130 0
1.0 -174 86 0
1.0 117 -5 0
1.0 126 11 0
1.0 -8 -162 0
1.0 23 188 0
1.0 -4 -193 0
1.0 32 -38 0
1.0 167 -29 0
1.0 -115 40 0
1.0 45 -60 0
1.0 71 73 0
1.0 35 185 0
1.0 -173 -105 0
1.0 -97 -67 0
1.0 104 15 0
1.0 44 -150 0
1.0 -190 176 0
1.0 36 -15 0
1.0 -88 -52 0
1.0 -37 32 0
1.0 -136 89 0
1.0 -156 146 0
1.0 -160 21 0
1.0 -171 -139 0
1.0 -114 -150 0
1.0 165 195 0
1.0 -47 38 0
1.0 69 154 0
1.0 43 -77 0
1.0 22 -198 0
1.0 -19 -185 0
1.0 -123 145 0
1.0 -95 140 0
1.0 -135 -39 0
1.0 77 -87 0
1.0 -41 157 0
1.0 34 186 0
1.0 184 136 0
1.0 -121 21 0
1.0 166 138 0
1.0 -78 65 0
1.0 -104 -31 0
1.0 -118 -59 0
1.0 16 75 0
1.0 -61 121 0
1.0 57 -140 0
1.0 161 -37 0
1.0 -175 101 0
1.0 166 105 0
1.0 136 60 0
1.0 118 -175 0
1.0 -49 -51 0
1.0 -172 86 0
1.0 26 -200 0
1.0 -36 25 0
1.0 125 97 0
1.0 -2 -128 0
1.0 -187 -8 0
1.0 183 200 0
1.0 -51 20 0
1.0 105 -94 0
1.0 -94 -54 0
1.0 -79 27 0
1.0 124 -3 0
1.0 130 -52 0
1.0 60 51 0
1.0 50 -59 0
1.0 -79 -14 0
1.0 -108 171 0
1.0 -25 -29 0
1.0 -56 -70 0
1.0 -73 200 0
1.0 -52 -165 0
1.0 -15 140 0
1.0 -199 26 0
1.0 39 -86 0
1.0 -57 173 0
1.0 -2 77 0
1.0 147 91 0
1.0 90 -139 0
1.0 103 -141 0
1.0 -80 6 0
1.0 -31 145 0
1.0 30 15 0
1.0 -187 -163 0
1.0 40 -153 0
1.0 43 -80 0
1.0 18 -27 0
1.0 167 127 0
1.0 -132 -17 0
1.0 161 -80 0
1.0 94 47 0
1.0 9 45 0
1.0 197 112 0
1.0 -192 40 0
1.0 -66 47 0
1.0 173 -164 0
1.0 180 -3 0
1.0 -83 -98 0
1.0 144 -7 0
1.0 52 124 0
1.0 36 35 0
1.0 74 -61 0
1.0 -108 163 0
1.0 -127 -50 0
1.0 53 -50 0
1.0 -147 177 0
1.0 184 167 0
1.0 90 -44 0
1.0 -79 -172 0
1.0 33 -187 0
1.0 149 63 0
1.0 -113 -3 0
1.0 -53 -28 0
1.0 4 -12 0
1.0 179 133 0
1.0 -177 105 0
1.0 76 -145 0
1.0 131 99 0
1.0 -162 67 0
1.0 70 -136 0
1.0 -163 -141 0
1.0 -153 -12 0
1.0 -145 -173 0
1.0 -77 -192 0
1.0 137 183 0
1.0 -82 109 0
1.0 -176 102 0
1.0 -37 -156 0
1.0 -97 91 0
1.0 -103 117 0
1.0 -90 -179 0
1.0 -171 -145 0
1.0 -128 181 0
1.0 90 122 0
1.0 -23 167 0
1.0 123 80 0
1.0 170 23 0
1.0 -140 49 0
1.0 -28 -87 0
1.0 -32 -115 0
1.0 -96 -81 0
1.0 2 17 0
1.0 184 -161 0
1.0 -41 142 0
1.0 165 -194 0
1.0 -43 2 0
1.0 89 -128 0
1.0 43 -175 0
1.0 -56 44 0
1.0 61 172 0
1.0 -133 -165 0
1.0 -107 75 0
1.0 -68 -66 0
1.0 -67 -107 0
1.0 35 49 0
1.0 24 151 0
1.0 -195 137 0
1.0 109 19 0
1.0 184 48 0
1.0 -122 -196 0
1.0 61 -134 0
1.0 41 80 0
1.0 -128 -155 0
1.0 106 167 0
1.0 -104 167 0
1.0 186 -54 0
1.0 102 65 0
1.0 61 -18 0
1.0 152 -113 0
1.0 192 -129 0
1.0 84 -20 0
1.0 187 101 0
1.0 -68 44 0
1.0 97 -154 0
1.0 18 78 0
1.0 -96 36 0
1.0 148 -48 0
1.0 177 106 0
1.0 125 -129 0
1.0 29 137 0
1.0 -180 103 0
1.0 56 169 0
1.0 -46 -98 0
1.0 -133 151 0
1.0 198 -27 0
1.0 132 78 0
1.0 -7 82 0
1.0 -18 -168 0
1.0 70 -79 0
1.0 -47 149 0
1.0 46 -150 0
1.0 101 22 0
1.0 48 -79 0
1.0 157 -106 0
1.0 -188 3 0
1.0 171 129 0
1.0 -7 76 0
1.0 -24 164 0
1.0 113 180 0
1.0 -1 108 0
1.0 187 -184 0
1.0 -90 64 0
1.0 66 104 0
1.0 32 84 0
1.0 159 -42 0
1.0 5 -37 0
1.0 -16 101 0
1.0 9 -43 0
1.0 -27 -94 0
1.0 -157 45 0
1.0 148 -75 0
1.0 158 -136 0
1.0 177 -109 0
1.0 146 -151 0
1.0 -52 30 0
1.0 73 44 0
1.0 137 195 0
1.0 -39 -8 0
1.0 -82 176 0
1.0 -111 182 0
1.0 91 55 0
1.0 -6 167 0
1.0 -197 176 0
1.0 -19 -174 0
1.0 168 182 0
1.0 -190 167 0
1.0 -142 157 0
1.0 -139 67 0
1.0 122 -8 0
1.0 -175 -62 0
1.0 37 103 0
1.0 77 7 0
1.0 189 -61 0
1.0 27 -42 0
1.0 198 -160 0
1.0 -27 -161 0
1.0 168 -30 0
1.0 -91 -59 0
1.0 -161 153 0
1.0 160 -194 0
1.0 -55 131 0
1.0 172 -174 0
1.0 -133 -71 0
1.0 -31 -71 0
1.0 -100 -181 0
1.0 -39 -55 0
1.0 8 -100 0
1.0 -94 -117 0
1.0 47 40 0
1.0 -13 -80 0
1.0 -151 -94 0
1.0 -164 12 0
1.0 192 122 0
1.0 176 -170 0
1.0 -70 -65 0
1.0 -182 64 0
1.0 103 -141 0
1.0 21 -35 0
1.0 -128 166 0
1.0 -177 -132 0
1.0 -53 6 0
1.0 176 27 0
1.0 92 161 0
1.0 -24 -119 0
1.0 60 147 0
1.0 181 -102 0
1.0 -67 2 0
1.0 133 -153 0
1.0 159 -8 0
1.0 -35 -24 0
1.0 -184 186 0
1.0 -104 -100 0
1.0 46 174 0
1.0 -75 -92 0
1.0 -93 134 0
1.0 87 193 0
1.0 -1 23 0
1.0 -47 157 0
1.0 142 161 0
1.0 60 -170 0
1.0 -144 50 0
1.0 -142 67 0
1.0 1 141 0
1.0 -134 -69 0
1.0 -92 -112 0
1.0 -68 131 0
1.0 92 -6 0
1.0 176 -63 0
1.0 -112 189 0
1.0 56 94 0
1.0 -35 -147 0
1.0 -15 -76 0
1.0 187 73 0
1.0 3 13 0
1.0 19 -119 0
1.0 -182 102 0
1.0 -91 -48 0
1.0 142 -34 0
1.0 -180 -146 0
1.0 -22 48 0
1.0 120 -146 0
1.0 159 -128 0
1.0 -47 62 0
1.0 -164 83 0
1.0 -130 67 0
1.0 100 3 0
1.0 149 -194 0
1.0 -41 -175 0
1.0 121 43 0
1.0 170 100 0
1.0 161 -25 0
1.0 -107 164 0
1.0 -31 -177 0
1.0 179 -157 0
1.0 150 -84 0
1.0 -59 -76 0
1.0 118 34 0
1.0 -133 112 0
1.0 137 148 0
1.0 112 -194 0
1.0 171 -189 0
1.0 146 83 0
1.0 166 174 0
1.0 50 -37 0
1.0 70 59 0
1.0 171 -158 0
1.0 -105 112 0
1.0 -106 31 0
1.0 20 -30 0
1.0 112 104 0
1.0 -77 -147 0
1.0 184 103 0
1.0 162 -148 0
1.0 105 151 0
1.0 63 -189 0
1.0 19 183 0
1.0 13 -72 0
1.0 175 64 0
1.0 -11 -102 0
1.0 5 -72 0
1.0 19 -104 0
1.0 -55 -136 0
1.0 125 -159 0
1.0 -142 -131 0
1.0 3 -183 0
1.0 47 78 0
1.0 180 -8 0
1.0 -79 98 0
1.0 1 48 0
1.0 -184 -155 0
1.0 113 58 0
1.0 189 -31 0
1.0 -13 84 0
1.0 -162 -198 0
1.0 -5 166 0
1.0 -64 76 0
1.0 -123 -2 0
1.0 156 91 0
1.0 -149 -65 0
1.0 -96 -129 0
1.0 -13 -95 0
1.0 -92 83 0
1.0 -49 -41 0
1.0 -116 161 0
1.0 -162 -95 0
1.0 -186 -159 0
1.0 24 -106 0
1.0 35 197 0
1.0 92 -195 0
1.0 77 -136 0
1.0 176 60 0
1.0 -20 -12 0
1.0 106 74 0
1.0 33 83 0
1.0 -189 95 0
1.0 92 -3 0
1.0 -197 91 0
1.0 -27 47 0
1.0 106 -34 0
1.0 -45 -22 0
1.0 95 -6 0
1.0 -88 67 0
1.0 162 159 0
1.0 161 -168 0
1.0 58 2 0
1.0 48 -27 0
1.0 60 -179 0
1.0 1 187 0
1.0 192 98 0
1.0 -165 -6 0
1.0 -164 -53 0
1.0 20 14 0
1.0 -15 110 0
1.0 137 -47 0
1.0 -25 95 0
1.0 -81 157 0
1.0 -54 143 0
1.0 -149 -106 0
1.0 158 -123 0
1.0 136 -118 0
1.0 27 -14 0
1.0 -61 27 0
1.0 -122 60 0
1.0 16 30 0
1.0 173 -26 0
1.0 131 32 0
1.0 154 70 0
1.0 187 118 0
1.0 -132 -50 0
1.0 77 -135 0
1.0 -195 186 0
1.0 16 -75 0
1.0 -100 167 0
1.0 -198 -142 0
1.0 11 -181 0
1.0 98 78 0
1.0 128 187 0
1.0 122 -97 0
1.0 -83 2 0
1.0 77 -4 0
1.0 170 -195 0
1.0 -137 -122 0
1.0 -103 158 0
1.0 35 -156 0
1.0 -142 51 0
1.0 -147 170 0
1.0 -172 103 0
1.0 106 13 0
1.0 8 -28 0
1.0 150 160 0
1.0 117 -36 0
1.0 -191 -83 0
1.0 -133 82 0
1.0 -52 173 0
1.0 75 -35 0
1.0 47 94 0
1.0 -122 99 0
1.0 -58 -88 0
1.0 -124 -177 0
1.0 59 -41 0
1.0 123 -41 0
1.0 -13 178 0
1.0 12 68 0
1.0 -161 124 0
1.0 -23 110 0
1.0 197 -76 0
1.0 52 -181 0
1.0 -22 -81 0
1.0 -121 -173 0
1.0 150 -116 0
1.0 183 -88 0
1.0 12 133 0
1.0 -42 178 0
1.0 -54 -169 0
1.0 150 -193 0
1.0 -73 -118 0
1.0 -90 35 0
1.0 150 -146 0
1.0 33 22 0
1.0 154 -101 0
1.0 79 -192 0
1.0 160 -192 0
1.0 184 53 0
1.0 171 196 0
1.0 31 -175 0
1.0 -121 -101 0
1.0 -122 189 0
1.0 90 -76 0
1.0 67 102 0
1.0 -94 137 0
1.0 -190 -17 0
1.0 12 184 0
1.0 159 119 0
1.0 19 -135 0
1.0 123 29 0
1.0 -104 -84 0
1.0 -186 80 0
1.0 -16 133 0
1.0 -149 -90 0
1.0 73 184 0
1.0 -102 -25 0
1.0 159 140 0
1.0 169 74 0
1.0 157 -73 0
1.0 152 -40 0
1.0 -172 -177 0
1.0 66 -138 0
1.0 -121 84 0
1.0 -108 77 0
1.0 -17 -2 0
1.0 76 41 0
1.0 -114 99 0
1.0 139 -195 0
1.0 171 5 0
1.0 -143 111 0
1.0 195 -142 0
1.0 -19 29 0
1.0 31 -117 0
1.0 -157 77 0
1.0 -176 -112 0
1.0 106 168 0
1.0 -173 -53 0
1.0 -164 -87 0
1.0 29 64 0
1.0 93 -29 0
1.0 145 -101 0
1.0 -177 -165 0
1.0 77 -107 0
1.0 74 88 0
1.0 -141 -172 0
1.0 59 139 0
1.0 -2 122 0
1.0 150 14 0
1.0 -114 44 0
1.0 9 167 0
1.0 73 -106 0
1.0 -193 -126 0
1.0 97 -153 0
1.0 91 100 0
1.0 -21 -174 0
1.0 188 -2 0
1.0 -46 61 0
1.0 -27 33 0
1.0 138 -6 0
1.0 131 37 0
1.0 -189 101 0
1.0 -200 24 0
1.0 -198 -157 0
1.0 159 57 0
1.0 117 -78 0
1.0 110 198 0
1.0 -3 -87 0
1.0 -124 -41 0
1.0 -142 -143 0
1.0 -167 -163 0
1.0 -120 154 0
1.0 11 -36 0
1.0 113 141 0
1.0 138 -112 0
1.0 199 -46 0
1.0 86 34 0
1.0 -177 -25 0
1.0 -188 -131 0
1.0 -84 57 0
1.0 93 67 0
1.0 7 -91 0
1.0 3 94 0
1.0 -140 158 0
1.0 192 -157 0
1.0 -182 -20 0
1.0 150 20 0
1.0 -76 -60 0
1.0 -126 -149 0
1.0 40 199 0
1.0 93 162 0
1.0 119 -167 0
1.0 123 -109 0
1.0 128 190 0
1.0 -10 148 0
1.0 7 -39 0
1.0 188 27 0
1.0 25 -142 0
1.0 -104 112 0
1.0 -78 -6 0
1.0 -114 11 0
1.0 -1 176 0
1.0 124 -31 0
1.0 70 149 0
1.0 175 -127 0
1.0 -69 -152 0
1.0 -63 -66 0
1.0 -72 -127 0
1.0 138 -44 0
1.0 -20 -146 0
1.0 177 44 0
1.0 -192 -134 0
1.0 -61 -187 0
1.0 -138 82 0
1.0 -148 96 0
1.0 22 -80 0
1.0 123 -30 0
1.0 175 -46 0
1.0 -89 157 0
1.0 91 -101 0
1.0 88 12 0
1.0 94 181 0
1.0 76 165 0
1.0 45 -63 0
1.0 -92 154 0
1.0 199 194 0
1.0 -151 16 0
1.0 -117 14 0
1.0 26 -71 0
1.0 -52 -54 0
1.0 19 18 0
1.0 80 -81 0
1.0 35 140 0
1.0 -134 56 0
1.0 -71 -87 0
1.0 -101 -115 0
1.0 186 20 0
1.0 -73 3 0
1.0 -21 -189 0
1.0 70 -184 0
1.0 -124 110 0
1.0 -166 56 0
1.0 143 66 0
1.0 -181 -15 0
1.0 34 -13 0
1.0 -16 167 0
1.0 -156 150 0
1.0 -133 9 0
1.0 -118 66 0
1.0 -121 56 0
1.0 -121 -143 0
1.0 157 -76 0
1.0 88 -69 0
1.0 -35 -92 0
1.0 41 -75 0
1.0 83 143 0
1.0 8 -145 0
1.0 -200 -4 0
1.0 146 -100 0
1.0 175 87 0
1.0 -155 -188 0
1.0 -80 -104 0
1.0 178 192 0
1.0 135 -125 0
1.0 69 146 0
1.0 -149 64 0
1.0 -163 -9 0
1.0 -95 90 0
1.0 78 -165 0
1.0 68 16 0
1.0 -8 -172 0
1.0 96 -169 0
1.0 114 157 0
1.0 -20 -21 0
1.0 -29 -154 0
1.0 -43 -120 0
1.0 84 -10 0
1.0 -26 155 0
1.0 -126 103 0
1.0 -72 -60 0
1.0 16 19 0
1.0 40 5 0
1.0 -159 139 0
1.0 -59 -164 0
1.0 174 -199 0
1.0 153 91 0
1.0 194 7 0
1.0 67 86 0
1.0 -105 -97 0
1.0 101 136 0
1.0 75 -3 0
1.0 167 -181 0
1.0 -180 -170 0
1.0 60 171 0
1.0 -177 109 0
1.0 -194 168 0
1.0 64 -42 0
1.0 178 53 0
1.0 -55 84 0
1.0 -65 60 0
1.0 -29 100 0
1.0 -70 184 0
1.0 93 60 0
1.0 -27 13 0
1.0 54 26 0
1.0 78 -79 0
1.0 -162 67 0
1.0 127 -114 0
1.0 13 44 0
1.0 -28 -186 0
1.0 45 16 0
1.0 -28 190 0
1.0 -15 17 0
1.0 95 196 0
1.0 62 -177 0
1.0 -91 -151 0
1.0 -194 188 0
1.0 -173 112 0
1.0 128 -146 0
1.0 136 -51 0
1.0 67 -150 0
1.0 145 65 0
1.0 -42 -100 0
1.0 50 139 0
1.0 126 19 0
1.0 -131 6 0
1.0 151 5 0
1.0 55 -50 0
1.0 199 -77 0
1.0 -142 -100 0
1.0 -199 144 0
1.0 83 148 0
1.0 -167 157 0
1.0 -162 -23 0
1.0 -28 169 0
1.0 18 34 0
1.0 -111 86 0
1.0 186 -109 0
1.0 53 -148 0
1.0 -96 125 0
1.0 -82 51 0
1.0 -74 -115 0
1.0 -83 -154 0
1.0 -188 186 0
1.0 -72 77 0
1.0 186 184 0
1.0 -131 75 0
1.0 200 118 0
1.0 -169 48 0
1.0 -162 79 0
1.0 -32 126 0
1.0 -112 -61 0
1.0 138 -67 0
1.0 -51 -82 0
1.0 157 -135 0
1.0 52 95 0
1.0 143 -159 0
1.0 -37 5 0
1.0 131 91 0
1.0 152 6 0
1.0 73 -66 0
1.0 -148 -172 0
1.0 106 -111 0
1.0 -6 -95 0
1.0 53 40 0
1.0 -44 -198 0
1.0 89 46 0
1.0 -51 -43 0
1.0 108 140 0
1.0 -112 148 0
1.0 -59 19 0
1.0 113 -153 0
1.0 192 62 0
1.0 60 -13 0
1.0 -58 -27 0
1.0 69 -118 0
1.0 57 -75 0
1.0 -23 191 0
1.0 -10 -161 0
1.0 113 -156 0
1.0 -17 143 0
1.0 155 149 0
1.0 -175 12 0
1.0 130 -151 0
1.0 -26 51 0
1.0 -42 140 0
1.0 -101 74 0
1.0 -29 60 0
1.0 -2 -55 0
1.0 -4 -146 0
1.0 158 90 0
1.0 41 39 0
1.0 -89 -27 0
1.0 -167 44 0
1.0 117 -152 0
1.0 -11 196 0
1.0 -50 113 0
1.0 58 138 0
1.0 -28 51 0
1.0 -90 -173 0
1.0 -199 -48 0
1.0 91 88 0
1.0 -40 110 0
1.0 105 -145 0
1.0 57 -32 0
1.0 -170 -39 0
1.0 89 -28 0
1.0 -1 -198 0
1.0 -46 -65 0
1.0 -153 -194 0
1.0 104 97 0
1.0 -41 106 0
1.0 138 -172 0
1.0 -11 139 0
1.0 167 -169 0
1.0 -166 34 0
1.0 -98 128 0
1.0 122 91 0
1.0 188 85 0
1.0 -190 -198 0
1.0 170 -137 0
1.0 75 138 0
1.0 106 156 0
1.0 189 172 0
1.0 -100 30 0
1.0 120 -178 0
1.0 -62 81 0
1.0 -79 62 0
1.0 198 13 0
1.0 -150 105 0
1.0 -61 121 0
1.0 -93 -9 0
1.0 39 -72 0
1.0 50 -60 0
1.0 -141 1 0
1.0 63 141 0
1.0 -153 -93 0
1.0 -198 47 0
1.0 -168 85 0
1.0 94 -43 0
1.0 114 -66 0
1.0 126 155 0
1.0 156 36 0
1.0 177 -150 0
1.0 42 12 0
1.0 59 190 0
1.0 74 -4 0
1.0 46 -139 0
1.0 -5 -189 0
1.0 -143 196 0
1.0 -32 80 0
1.0 -29 195 0
1.0 -6 169 0
1.0 158 7 0
1.0 -10 177 0
1.0 116 -98 0
1.0 86 137 0
1.0 -133 -47 0
1.0 -126 -42 0
1.0 37 109 0
1.0 -78 135 0
1.0 141 -196 0
1.0 173 64 0
1.0 161 20 0
1.0 157 58 0
1.0 105 200 0
1.0 -42 25 0
1.0 -134 10 0
1.0 145 25 0
1.0 21 -111 0
1.0 175 -42 0
1.0 -61 88 0
1.0 -146 55 0
1.0 54 159 0
1.0 -183 -65 0
1.0 -75 92 0
1.0 -117 -173 0
1.0 -83 141 0
1.0 -182 10 0
1.0 98 173 0
1.0 27 166 0
1.0 -124 -172 0
1.0 36 -148 0
1.0 -40 -151 0
1.0 123 34 0
1.0 174 -23 0
1.0 -32 -55 0
1.0 -27 58 0
1.0 -23 -64 0
1.0 36 109 0
1.0 -57 76 0
1.0 27 -110 0
1.0 -144 -145 0
1.0 167 -17 0
1.0 -71 70 0
1.0 -128 -100 0
1.0 163 -83 0
1.0 192 150 0
1.0 -26 51 0
1.0 161 -195 0
1.0 139 -155 0
1.0 -172 93 0
1.0 -163 31 0
1.0 131 89 0
1.0 172 -137 0
1.0 86 -161 0
1.0 -12 -154 0
1.0 148 164 0
1.0 -118 97 0
1.0 -190 -96 0
1.0 127 71 0
1.0 -160 -81 0
1.0 18 -41 0
1.0 2 104 0
1.0 -57 177 0
1.0 141 62 0
1.0 -159 -83 0
1.0 178 -79 0
1.0 -150 -142 0
1.0 23 110 0
1.0 -150 -133 0
1.0 -37 157 0
1.0 134 150 0
1.0 -12 -188 0
1.0 -71 80 0
1.0 -159 -19 0
1.0 160 -113 0
1.0 22 -56 0
1.0 -188 165 0
1.0 -121 88 0
1.0 -38 14 0
1.0 2 60 0
1.0 -140 139 0
1.0 158 -73 0
1.0 185 22 0
1.0 -78 122 0
1.0 86 102 0
1.0 190 6 0
1.0 20 189 0
1.0 49 -96 0
1.0 35 -15 0
1.0 -87 92 0
1.0 113 -10 0
